Strategies:  

WARNING: for repeatability, setting FPU to use double precision
============================[ Problem Statistics ]=============================
|                                                                             |
|  Number of variables:           999                                         |
|  Number of clauses:            9072                                         |
|  Parse time:                   0.00 s                                       |
|  Eliminated clauses:           0.00 Mb                                      |
|  Simplification time:          0.00 s                                       |
|                                                                             |
============================[ Search Statistics ]==============================
| Conflicts |          ORIGINAL         |          LEARNT          | Progress |
|           |    Vars  Clauses Literals |    Limit  Clauses Lit/Cl |          |
===============================================================================
===============================================================================
restarts              : 1
conflicts             : 3              (750 /sec)
decisions             : 12             (0.00 % random) (3000 /sec)
propagations          : 914            (228500 /sec)
conflict literals     : 9              (0.00 % deleted)
Memory used           : 22.00 MB
CPU time              : 0.004 s

SATISFIABLE


Strategies: -b -p  

WARNING: for repeatability, setting FPU to use double precision
============================[ Problem Statistics ]=============================
|                                                                             |
|  Number of variables:           999                                         |
|  Number of clauses:          338580                                         |
|  Parse time:                   0.28 s                                       |
|  Eliminated clauses:           0.00 Mb                                      |
|  Simplification time:         27.67 s                                       |
|                                                                             |
============================[ Search Statistics ]==============================
| Conflicts |          ORIGINAL         |          LEARNT          | Progress |
|           |    Vars  Clauses Literals |    Limit  Clauses Lit/Cl |          |
===============================================================================
===============================================================================
restarts              : 1
conflicts             : 2              (0 /sec)
decisions             : 6              (0.00 % random) (0 /sec)
propagations          : 838            (30 /sec)
conflict literals     : 5              (0.00 % deleted)
Memory used           : 90.00 MB
CPU time              : 27.956 s

SATISFIABLE


Strategies: -b -x  

WARNING: for repeatability, setting FPU to use double precision
============================[ Problem Statistics ]=============================
|                                                                             |
|  Number of variables:           999                                         |
|  Number of clauses:          302292                                         |
|  Parse time:                   0.24 s                                       |
|  Eliminated clauses:           0.00 Mb                                      |
|  Simplification time:          0.32 s                                       |
|                                                                             |
============================[ Search Statistics ]==============================
| Conflicts |          ORIGINAL         |          LEARNT          | Progress |
|           |    Vars  Clauses Literals |    Limit  Clauses Lit/Cl |          |
===============================================================================
===============================================================================
restarts              : 1
conflicts             : 4              (7 /sec)
decisions             : 7              (0.00 % random) (12 /sec)
propagations          : 1133           (2023 /sec)
conflict literals     : 13             (31.58 % deleted)
Memory used           : 77.00 MB
CPU time              : 0.56 s

SATISFIABLE


Strategies: -b -x -p  

WARNING: for repeatability, setting FPU to use double precision
============================[ Problem Statistics ]=============================
|                                                                             |
|  Number of variables:           999                                         |
|  Number of clauses:          628884                                         |
|  Parse time:                   0.49 s                                       |
|  Eliminated clauses:           0.00 Mb                                      |
|  Simplification time:         25.56 s                                       |
|                                                                             |
============================[ Search Statistics ]==============================
| Conflicts |          ORIGINAL         |          LEARNT          | Progress |
|           |    Vars  Clauses Literals |    Limit  Clauses Lit/Cl |          |
===============================================================================
===============================================================================
restarts              : 1
conflicts             : 2              (0 /sec)
decisions             : 6              (0.00 % random) (0 /sec)
propagations          : 838            (32 /sec)
conflict literals     : 5              (0.00 % deleted)
Memory used           : 142.00 MB
CPU time              : 26.048 s

SATISFIABLE


Strategies: -b -a  

WARNING: for repeatability, setting FPU to use double precision
============================[ Problem Statistics ]=============================
|                                                                             |
|  Number of variables:           999                                         |
|  Number of clauses:          956772                                         |
|  Parse time:                   0.93 s                                       |
|  Eliminated clauses:           0.00 Mb                                      |
|  Simplification time:          2.36 s                                       |
|                                                                             |
============================[ Search Statistics ]==============================
| Conflicts |          ORIGINAL         |          LEARNT          | Progress |
|           |    Vars  Clauses Literals |    Limit  Clauses Lit/Cl |          |
===============================================================================
===============================================================================
restarts              : 1
conflicts             : 4              (1 /sec)
decisions             : 7              (0.00 % random) (2 /sec)
propagations          : 1133           (345 /sec)
conflict literals     : 13             (31.58 % deleted)
Memory used           : 287.00 MB
CPU time              : 3.288 s

SATISFIABLE


Strategies: -b  

WARNING: for repeatability, setting FPU to use double precision
============================[ Problem Statistics ]=============================
|                                                                             |
|  Number of variables:           999                                         |
|  Number of clauses:           11988                                         |
|  Parse time:                   0.00 s                                       |
|  Eliminated clauses:           0.00 Mb                                      |
|  Simplification time:          0.01 s                                       |
|                                                                             |
============================[ Search Statistics ]==============================
| Conflicts |          ORIGINAL         |          LEARNT          | Progress |
|           |    Vars  Clauses Literals |    Limit  Clauses Lit/Cl |          |
===============================================================================
===============================================================================
restarts              : 1
conflicts             : 4              (333 /sec)
decisions             : 7              (0.00 % random) (583 /sec)
propagations          : 1133           (94417 /sec)
conflict literals     : 13             (31.58 % deleted)
Memory used           : 23.00 MB
CPU time              : 0.012 s

SATISFIABLE


